[2026-03-23T13:36:46.088Z] Pipeline "set_exp_2_exp_2_n023_c003_g001" → 2026_03_23_13_36_45_set_exp_2_exp_2_n023_c003_g001_max.sol
Set parameter WLSAccessID
Set parameter WLSSecret
Set parameter LicenseID to value 2792458
Set parameter LogFile to value "gurobi.log"
Using license file /root/gurobi.lic
Academic license 2792458 - for non-commercial use only - registered to an___@studenti.unipg.it

Gurobi Optimizer version 13.0.1 build v13.0.1rc0 (linux64 - "Ubuntu 24.04.4 LTS")
Copyright (c) 2026, Gurobi Optimization, LLC

Warning: Duplicate section found (read 'binary') - Is a variable name equal to an LP file format keyword?
Warning: Duplicate section found (read 'binary') - Is a variable name equal to an LP file format keyword?
Warning: Duplicate section found (read 'binary') - Is a variable name equal to an LP file format keyword?
Warning: Duplicate section found (read 'binary') - Is a variable name equal to an LP file format keyword?
Warning: Duplicate section found (read 'binary') - Is a variable name equal to an LP file format keyword?
Warning: Duplicate section found (read 'binary') - Is a variable name equal to an LP file format keyword?
Warning: Duplicate section found (read 'binary') - Is a variable name equal to an LP file format keyword?
Warning: Duplicate section found (read 'binary') - Is a variable name equal to an LP file format keyword?
Warning: Duplicate section found (read 'binary') - Is a variable name equal to an LP file format keyword?
Warning: Duplicate section found (read 'binary') - Is a variable name equal to an LP file format keyword?
Warning: Further warnings of this type will be omitted.
Read LP format model from file /root/bgw/data/uploads/2026_03_23_13_36_45_set_exp_2_exp_2_n023_c003_g001_max.lp
Reading time = 0.00 seconds
: 4000 rows, 379 columns, 12031 nonzeros

Using Gurobi shared library /opt/gurobi1301/linux64/lib/libgurobi.so.13.0.1

CPU model: AMD EPYC-Genoa Processor, instruction set [SSE2|AVX|AVX2|AVX512]
Thread count: 16 physical cores, 16 logical processors, using up to 16 threads

Academic license 2792458 - for non-commercial use only - registered to an___@studenti.unipg.it
Optimize a model with 4000 rows, 379 columns and 12031 nonzeros (Max)
Model fingerprint: 0x1d265136
Model has 3 linear objective coefficients
Variable types: 26 continuous, 353 integer (353 binary)
Coefficient statistics:
  Matrix range     [1e+00, 2e+01]
  Objective range  [1e+00, 1e+00]
  Bounds range     [1e+00, 1e+00]
  RHS range        [1e+00, 3e+01]

Found heuristic solution: objective 3.0000000
Presolve removed 436 rows and 112 columns
Presolve time: 0.01s
Presolved: 3564 rows, 267 columns, 10812 nonzeros
Variable types: 0 continuous, 267 integer (261 binary)

Root relaxation: objective 1.200000e+01, 88 iterations, 0.01 seconds (0.01 work units)

    Nodes    |    Current Node    |     Objective Bounds      |     Work
 Expl Unexpl |  Obj  Depth IntInf | Incumbent    BestBd   Gap | It/Node Time

     0     0   12.00000    0   18    3.00000   12.00000   300%     -    0s
H    0     0                       6.0000000   12.00000   100%     -    0s
H    0     0                       8.0000000   12.00000  50.0%     -    0s
     0     0   12.00000    0   19    8.00000   12.00000  50.0%     -    0s
     0     0   12.00000    0   19    8.00000   12.00000  50.0%     -    0s
     0     0   12.00000    0   17    8.00000   12.00000  50.0%     -    0s
     0     0   12.00000    0   19    8.00000   12.00000  50.0%     -    0s
     0     0   12.00000    0   18    8.00000   12.00000  50.0%     -    0s
     0     0   12.00000    0   21    8.00000   12.00000  50.0%     -    0s
     0     0   12.00000    0   18    8.00000   12.00000  50.0%     -    0s
     0     0   11.00000    0   18    8.00000   11.00000  37.5%     -    0s
     0     0   11.00000    0   18    8.00000   11.00000  37.5%     -    0s
     0     0   11.00000    0   18    8.00000   11.00000  37.5%     -    0s
     0     0   11.00000    0   18    8.00000   11.00000  37.5%     -    0s
     0     0   11.00000    0   18    8.00000   11.00000  37.5%     -    0s
     0     0   11.00000    0   17    8.00000   11.00000  37.5%     -    0s
     0     2   11.00000    0   14    8.00000   11.00000  37.5%     -    0s

Cutting planes:
  Cover: 1
  MIR: 3
  Inf proof: 2
  Zero half: 1

Explored 262 nodes (18643 simplex iterations) in 0.48 seconds (0.44 work units)
Thread count was 16 (of 16 available processors)

Solution count 3: 8 6 3 

Optimal solution found (tolerance 1.00e-04)
Best objective 8.000000000000e+00, best bound 8.000000000000e+00, gap 0.0000%

Wrote result file '/root/bgw/data/results/2026_03_23_13_36_45_set_exp_2_exp_2_n023_c003_g001_max.sol'

